3 
4  49 
5  06 21 36 51 
6  05 19 31 45 
7  01 16 31 46 
8  01 16 31 46 
9  01 16 31 46 
10  01 16 31 46 
11  01 16 31 46 
12  01 16 31 45 
13  00 15 30 45 
14  00 15 30 45 
15  00 15 30 45 
16  00 15 30 45 
17  00 15 30 45 
18  00 15 30 45 
19  00 17 32 47 
20  02 17 31 46 
21  01 16 31 46 
22  01 16 31 
23 
